s td 233 7 246
b 1 1 2
b 2 2 3
b 3 3 4
b 4 4 5
b 5 5 6
b 6 6 7
b 7 7 8
b 8 8 9
b 9 9 10
b 10 10 11
b 11 11 12
b 12 12 13
b 13 13 14
b 14 14 15
b 15 15 16
b 16 16 17
b 17 17 18
b 18 18 19
b 19 19 20
b 20 20 21
b 21 21 22
b 22 22 23
b 23 23 24
b 24 24 25
b 25 25 26
b 26 26 27
b 27 27 28
b 28 28 29
b 29 29 30
b 30 30 31
b 31 31 32
b 32 32 33
b 33 33 34
b 34 34 35
b 35 35 36
b 36 36 37
b 37 37 38
b 38 38 39
b 39 39 40
b 40 40 41
b 41 41 42
b 42 42 43
b 43 43 44
b 44 44 45
b 45 45 46
b 46 46 47
b 47 47 48
b 48 48 49
b 49 49 50
b 50 50 51
b 51 51 52
b 52 52 53
b 53 53 54
b 54 54 55
b 55 55 56
b 56 56 57 58
b 57 58 59 60
b 58 60 61
b 59 68 69 70
b 60 92 94 96
b 61 97 98 99
b 62 105 106 107
b 63 124 125
b 64 126 127 128
b 65 146 147 148
b 66 171 172 173
b 67 216 217 218
b 68 221 222 224
b 69 225 231 232
b 70 234 236 237
b 71 241 243 244
b 72 245 246
b 73 61 62 64
b 74 62 63 64
b 75 64 65
b 76 65 66
b 77 66 67
b 78 67 68
b 79 68 70
b 80 70 71
b 81 71 72
b 82 72 73
b 83 73 74
b 84 74 75
b 85 75 76
b 86 76 77
b 87 77 78
b 88 78 79
b 89 79 80
b 90 80 81 83
b 91 81 82 83
b 92 82 83 84
b 93 84 85
b 94 85 86
b 95 86 87
b 96 87 88
b 97 88 89
b 98 89 90
b 99 90 91
b 100 91 92
b 101 92 93 110
b 102 92 96 97
b 103 97 99 100
b 104 100 101 103
b 105 100 102 103
b 106 100 103 104
b 107 100 104 105
b 108 100 105 107
b 109 100 107 108
b 110 100 108 109
b 111 92 110 111
b 112 92 111 112
b 113 109 113 114
b 114 109 114 115
b 115 112 117 118
b 116 116 120 121
b 117 116 121 122
b 118 116 122 123
b 119 100 125 126
b 120 126 128 131
b 121 115 129 130
b 122 118 133 134
b 123 118 134 135
b 124 118 135 142
b 125 146 148 151
b 126 130 149 158
b 127 153 154 155
b 128 153 155 156
b 129 130 158 160
b 130 150 169 174
b 131 171 173 176
b 132 175 178 179
b 133 180 181 182
b 134 180 182 184
b 135 145 185 187
b 136 188 191 192
b 137 188 192 193
b 138 188 193 195
b 139 188 195 196
b 140 188 196 197
b 141 186 198 203
b 142 197 199 204
b 143 197 200 201
b 144 197 201 205
b 145 197 203 204 205
b 146 174 208 211
b 147 206 209 214
b 148 211 212 215
b 149 207 213 216
b 150 219 220 221
b 151 221 223 225
b 152 221 224 225
b 153 225 226 239
b 154 225 227 233
b 155 225 232 233
b 156 225 228 229
b 157 225 229 234
b 158 225 233 234
b 159 225 230 240
b 160 234 235 238
b 161 234 237 238
b 162 225 234 238
b 163 225 238 239
b 164 225 239 240
b 165 221 225 240
b 166 221 240 241
b 167 221 241
b 168 241 242 245
b 169 241 244 245
b 170 241 245
b 171 218 219 221
b 172 216 218 219
b 173 190 216 219
b 174 92 95 97 112
b 175 95 97 109 116 119 132 142
b 176 97 109 116 119 132 142 160
b 177 97 109 116 119 126 132 160
b 178 97 100 109 126
b 179 109 115 116 126 132 160
b 180 115 126 131 132 160
b 181 115 130 131 160
b 182 116 119 123 126
b 183 119 132 141 142 144 150 160
b 184 119 132 139 141 144 150
b 185 119 139 140 144 150
b 186 119 137 139 140
b 187 139 140 143 144
b 188 141 142 144 150 152 160 187
b 189 144 146 150 152 187
b 190 146 150 151 152
b 191 141 142 150 152 156 160 187
b 192 142 150 152 156 160 162 187
b 193 152 156 160 161 162
b 194 152 156 157 161
b 195 142 150 156 160 162 163 187
b 196 142 159 162 163
b 197 150 156 160 162 163 164 187
b 198 150 156 162 163 164 168 187
b 199 162 163 164 166 168
b 200 162 163 165 166
b 201 150 156 163 164 168 174 187
b 202 156 163 164 168 174 183 187
b 203 156 164 168 174 183 186 187
b 204 164 167 168 186
b 205 156 174 183 186 187 188
b 206 156 174 183 186 188 190
b 207 156 188 189 190
b 208 174 183 186 188 190 206
b 209 186 188 190 197 206
b 210 188 190 194 197
b 211 186 197 203 206
b 212 174 183 190 206 207
b 213 183 202 206 207
b 214 174 190 206 207 215
b 215 174 206 207 211 215
b 216 206 207 210 211
b 217 190 207 215 216
b 218 163 168 170 174 183 187
b 219 168 170 174 177 183 187
b 220 168 170 174 176 177
b 221 168 170 171 176
b 222 170 177 180 183 187
b 223 170 177 179 180 183
b 224 170 175 177 179
b 225 180 183 184 187
b 226 95 97 109 112 116 132 142
b 227 112 118 132 142
b 228 132 136 138 141
b 229 132 138 139 141
b 230 144 145 146 187
b 231 141 152 153 156
b 232 197 203 205 206
b 233 206 211 214 215
1 2
2 3
3 4
4 5
5 6
6 7
7 8
8 9
9 10
10 11
11 12
12 13
13 14
14 15
15 16
16 17
17 18
18 19
19 20
20 21
21 22
22 23
23 24
24 25
25 26
26 27
27 28
28 29
29 30
30 31
31 32
32 33
33 34
34 35
35 36
36 37
37 38
38 39
39 40
40 41
41 42
42 43
43 44
44 45
45 46
46 47
47 48
48 49
49 50
50 51
51 52
52 53
53 54
54 55
55 56
56 57
57 58
58 73
59 79
60 102
61 103
62 108
63 119
64 120
65 125
66 131
67 172
68 152
69 155
70 161
71 169
72 170
73 74
74 75
75 76
76 77
77 78
78 79
79 80
80 81
81 82
82 83
83 84
84 85
85 86
86 87
87 88
88 89
89 90
90 91
91 92
92 93
93 94
94 95
95 96
96 97
97 98
98 99
99 100
100 174
101 111
102 174
103 178
104 106
105 106
106 107
107 108
108 109
109 110
110 178
111 112
112 174
113 114
114 179
115 227
116 117
117 118
118 182
119 178
120 180
121 181
122 123
123 124
124 227
125 190
126 129
127 128
128 231
129 181
130 201
131 221
132 224
133 134
134 225
135 230
136 137
137 138
138 139
139 140
140 209
141 211
142 145
143 144
144 232
145 232
146 215
147 233
148 215
149 217
150 171
151 165
152 165
153 164
154 158
155 158
156 157
157 162
158 162
159 165
160 162
161 162
162 163
163 164
164 165
165 171
165 166
166 170
166 167
168 170
169 170
171 172
172 173
173 217
174 226
175 176
175 226
176 177
176 183
177 178
177 179
177 182
179 180
180 181
183 184
183 188
184 229
184 185
185 186
185 187
188 189
188 191
189 230
189 190
191 231
191 192
192 193
192 195
193 194
195 196
195 197
197 198
198 199
198 201
199 200
201 202
202 203
202 218
203 204
203 205
205 206
206 207
206 208
208 209
208 212
209 210
209 211
211 232
212 213
212 214
214 215
214 217
215 233
215 216
218 219
219 220
219 222
220 221
222 223
222 225
223 224
226 227
228 229
